15
830 886 620  454
986 896 701  355
821 803 422  226
883 939 970  123
469 634 514  231
491 815 941  728
752 509 522  111
728 912 865  802
411 461 459  189
580 990 696  855
497 947 915  287
731 603 653  442
494 407 524  974
882 610 623  438
736 595 991  843
10
586 438 47  40 254
77 413 62  290 274
370 292 199  200 245
114 41 713  130 243
95 352 169  57 85
14 597 575  297 45
395 779 617  272 231
319 286 632  299 85
58 649 662  66 183
256 280 473  248 146
